# Solution for model combustion_srl_ilp
# Objective value = 1.1388070306214019e+01
Z_321_0_0 0
Z_321_0_1 0
Z_321_0_2 1
Z_321_0_3 0
Z_465_0_0 0
Z_465_0_1 0
Z_465_0_2 0
Z_465_0_3 1
Z_45_0_0 0
Z_45_0_1 1
Z_45_0_2 0
Z_45_0_3 0
Z_45_1_0 0
Z_45_1_1 0
Z_45_1_2 1
Z_45_1_3 0
Z_630_0_0 0
Z_630_0_1 0
Z_630_0_2 1
Z_630_0_3 0
Z_48_0_0 0
Z_48_0_1 0
Z_48_0_2 0
Z_48_0_3 1
Z_513_0_0 0
Z_513_0_1 1
Z_513_0_2 0
Z_513_0_3 0
Z_324_4_0 0
Z_324_4_1 0
Z_324_4_2 1
Z_324_4_3 0
Z_324_0_0 0
Z_324_0_1 0
Z_324_0_2 0
Z_324_0_3 0
Z_324_2_0 0
Z_324_2_1 0
Z_324_2_2 0
Z_324_2_3 0
Z_324_1_0 0
Z_324_1_1 1
Z_324_1_2 0
Z_324_1_3 0
Z_324_3_0 1
Z_324_3_1 0
Z_324_3_2 0
Z_324_3_3 0
Z_324_5_0 0
Z_324_5_1 0
Z_324_5_2 0
Z_324_5_3 1
Z_602_0_0 0
Z_602_0_1 1
Z_602_0_2 0
Z_602_0_3 0
Z_326_0_0 1
Z_326_0_1 0
Z_326_0_2 0
Z_326_0_3 0
Z_484_0_0 0
Z_484_0_1 0
Z_484_0_2 1
Z_484_0_3 0
Z_157_0_0 0
Z_157_0_1 1
Z_157_0_2 0
Z_157_0_3 0
Z_483_0_0 0
Z_483_0_1 1
Z_483_0_2 0
Z_483_0_3 0
Z_623_0_0 1
Z_623_0_1 0
Z_623_0_2 0
Z_623_0_3 0
Z_421_0_0 1
Z_421_0_1 0
Z_421_0_2 0
Z_421_0_3 0
Z_636_0_0 0
Z_636_0_1 0
Z_636_0_2 0
Z_636_0_3 1
Z_119_3_0 0
Z_119_3_1 0
Z_119_3_2 0
Z_119_3_3 1
Z_119_2_0 0
Z_119_2_1 0
Z_119_2_2 0
Z_119_2_3 0
Z_119_5_0 1
Z_119_5_1 0
Z_119_5_2 0
Z_119_5_3 0
Z_119_0_0 0
Z_119_0_1 1
Z_119_0_2 0
Z_119_0_3 0
Z_119_4_0 0
Z_119_4_1 0
Z_119_4_2 0
Z_119_4_3 0
Z_119_6_0 0
Z_119_6_1 0
Z_119_6_2 0
Z_119_6_3 0
Z_119_7_0 0
Z_119_7_1 0
Z_119_7_2 1
Z_119_7_3 0
Z_309_0_0 0
Z_309_0_1 0
Z_309_0_2 0
Z_309_0_3 1
Z_628_0_0 0
Z_628_0_1 1
Z_628_0_2 0
Z_628_0_3 0
